30 200
0 250 250 0 0 1925 0 -1 -1
0 247 306 33 0 1925 10 0 0
1 332 382 -33 0 1925 10 1 0
2 181 441 25 0 1925 10 0 1
3 105 181 19 0 1925 0 0 1
4 176 199 28 0 1925 10 0 1
5 470 405 17 0 1925 10 0 1
6 74 215 10 0 1925 10 0 1
7 210 219 7 0 1925 10 0 1
8 420 383 27 0 1925 0 0 1
9 270 337 -133 0 1925 10 1 1
10 144 35 26 0 1925 10 0 2
11 323 34 -26 0 1925 10 1 2
12 15 11 15 0 1925 10 0 3
13 210 133 15 0 1925 10 0 3
14 306 235 25 0 1925 10 0 3
15 235 13 27 0 1925 10 0 3
16 228 260 12 0 1925 0 0 3
17 231 29 14 0 1925 10 0 3
18 190 267 -108 0 1925 10 1 3
19 451 62 5 0 1925 10 0 4
20 337 41 8 0 1925 10 0 4
21 441 7 20 0 1925 10 0 4
22 172 66 -33 0 1925 10 1 4
23 484 224 7 0 1925 10 0 5
24 235 288 18 0 1925 10 0 5
25 449 190 -25 0 1925 10 1 5
26 226 423 15 0 1925 10 0 6
27 423 170 27 0 1925 10 0 6
28 355 174 33 0 1925 10 0 6
29 251 238 27 0 1925 10 0 6
30 404 59 13 0 1925 10 0 6
31 330 138 18 0 1925 0 0 6
32 195 464 20 0 1925 0 0 6
33 257 391 -153 0 1925 10 1 6
34 382 360 26 0 1925 10 0 7
35 437 98 16 0 1925 10 0 7
36 399 175 13 0 1925 10 0 7
37 287 256 18 0 1925 10 0 7
38 438 127 2 0 1925 10 0 7
39 466 96 -75 0 1925 10 1 7
40 291 251 20 0 1925 10 0 8
41 482 104 19 0 1925 10 0 8
42 198 85 28 0 1925 10 0 8
43 323 29 7 0 1925 10 0 8
44 301 239 31 0 1925 10 0 8
45 494 165 19 0 1925 10 0 8
46 318 99 35 0 1925 10 0 8
47 178 135 -159 0 1925 10 1 8
48 303 78 12 0 1925 10 0 9
49 68 240 11 0 1925 10 0 9
50 23 235 43 0 1925 10 0 9
51 285 247 -66 0 1925 10 1 9
52 34 329 2 0 1925 10 0 10
53 12 358 -2 0 1925 10 1 10
54 447 272 12 0 1925 10 0 11
55 435 180 37 0 1925 10 0 11
56 1 101 8 0 1925 10 0 11
57 162 301 -57 0 1925 10 1 11
58 488 96 22 0 1925 10 0 12
59 309 29 11 0 1925 0 0 12
60 5 445 30 0 1925 10 0 12
61 214 245 8 0 1925 10 0 12
62 371 163 21 0 1925 0 0 12
63 189 402 10 0 1925 10 0 12
64 228 260 -102 0 1925 10 1 12
65 299 353 34 0 1925 10 0 13
66 385 17 40 0 1925 10 0 13
67 253 74 -74 0 1925 10 1 13
68 191 215 17 0 1925 10 0 14
69 447 184 27 0 1925 10 0 14
70 78 406 15 0 1925 10 0 14
71 158 179 37 0 1925 10 0 14
72 225 269 30 0 1925 0 0 14
73 199 203 -126 0 1925 10 1 14
74 475 267 7 0 1925 10 0 15
75 415 207 -7 0 1925 10 1 15
76 26 342 12 0 1925 10 0 16
77 125 61 -12 0 1925 10 1 16
78 479 387 13 0 1925 10 0 17
79 460 328 13 0 1925 10 0 17
80 439 222 22 0 1925 10 0 17
81 385 239 21 0 1925 10 0 17
82 268 288 26 0 1925 0 0 17
83 214 274 -95 0 1925 10 1 17
84 436 295 11 0 1925 10 0 18
85 289 220 19 0 1925 10 0 18
86 149 458 -30 0 1925 10 1 18
87 288 439 16 0 1925 10 0 19
88 21 70 15 0 1925 10 0 19
89 142 360 20 0 1925 0 0 19
90 334 403 26 0 1925 10 0 19
91 248 386 22 0 1925 10 0 19
92 175 352 -99 0 1925 10 1 19
93 354 416 10 0 1925 10 0 20
94 36 301 21 0 1925 10 0 20
95 9 233 31 0 1925 10 0 20
96 40 304 16 0 1925 10 0 20
97 215 282 -78 0 1925 10 1 20
98 179 75 13 0 1925 10 0 21
99 130 247 17 0 1925 10 0 21
100 344 70 24 0 1925 10 0 21
101 325 210 15 0 1925 10 0 21
102 140 137 32 0 1925 10 0 21
103 226 175 -101 0 1925 10 1 21
